NAME : instances/20-120-tsp/instance-43.tsp
COMMENT : No Comment
TYPE : TSP
DIMENSION: 43
EDGE_WEIGHT_TYPE : EUC_2D
NODE_COORD_SECTION
1 9296 6155 
2 1297 7595 
3 3587 1803 
4 7861 4867 
5 3926 7556 
6 5195 922 
7 3728 2624 
8 7900 4783 
9 4325 1536 
10 2169 1346 
11 360 8326 
12 8797 549 
13 8207 984 
14 7399 6522 
15 9832 1751 
16 6410 6218 
17 1628 7895 
18 4053 2044 
19 6343 781 
20 9668 1008 
21 4466 809 
22 2586 4426 
23 8133 2500 
24 5167 2967 
25 9871 638 
26 3354 4067 
27 901 8275 
28 2552 3044 
29 1052 6754 
30 1901 499 
31 5778 6911 
32 5470 8115 
33 7630 7883 
34 4901 8638 
35 1436 8740 
36 4551 2266 
37 3311 9305 
38 3264 7924 
39 2183 5133 
40 4658 8302 
41 5163 2228 
42 1252 6873 
43 4095 3779 
EOF
